Version identifier: 20.1.0.0 | 2020-11-10 | 9bedb6d68
CPXPARAM_Threads                                 1
CPXPARAM_TimeLimit                               7200
CPXPARAM_MIP_Tolerances_MIPGap                   0
Generic callback                                 0x60
1 of 1 MIP starts provided solutions.
MIP start 'm1' defined initial solution with objective 1995.4154.
Tried aggregator 1 time.
Reduced MIP has 400501 rows, 400801 columns, and 1200800 nonzeros.
Reduced MIP has 800 binaries, 0 generals, 0 SOSs, and 0 indicators.
Presolve time = 0.40 sec. (379.65 ticks)
Probing time = 0.05 sec. (50.06 ticks)
Tried aggregator 1 time.
Reduced MIP has 400501 rows, 400801 columns, and 1200800 nonzeros.
Reduced MIP has 800 binaries, 0 generals, 0 SOSs, and 0 indicators.
Presolve time = 0.41 sec. (373.16 ticks)
Probing time = 0.05 sec. (50.06 ticks)
MIP emphasis: balance optimality and feasibility.
MIP search method: dynamic search.
Parallel mode: none, using 1 thread.
Root relaxation solution time = 0.12 sec. (154.24 ticks)

        Nodes                                         Cuts/
   Node  Left     Objective  IInf  Best Integer    Best Bound    ItCnt     Gap

*     0+    0                         1995.4154     2716.0000            36.11%
      0     0     2015.4396     6     1995.4154     2716.0000        0   36.11%
      0     2     2015.4396     6     1995.4154     2015.4396        0    1.00%
Elapsed time = 367.02 sec. (300261.18 ticks, tree = 0.01 MB, solutions = 1)
      1     3     2012.9809    16     1995.4154     2015.4393     7010    1.00%
      2     4     2013.1438    30     1995.4154     2013.1435    12345    0.89%
      3     5     2012.9051    16     1995.4154     2013.1435    12866    0.89%
      4     6     2011.2904    26     1995.4154     2013.1435    17400    0.89%
      5     7     2012.8819    17     1995.4154     2013.1435    24755    0.89%
      6     8     2012.8569    14     1995.4154     2013.1435    64948    0.89%
      7     9     2012.6590    26     1995.4154     2013.1435    76240    0.89%
      8    10     2011.0397    12     1995.4154     2013.1435    83780    0.89%
      9    11     2011.0220    16     1995.4154     2013.1435    83972    0.89%
*    10+   10                         2006.0986     2013.1435             0.35%
*    10+   10                         2006.1882     2013.1435             0.35%
     10    12     2009.6285    17     2006.1882     2013.1435    89207    0.35%
Elapsed time = 955.37 sec. (680810.61 ticks, tree = 7.55 MB, solutions = 3)
     11    13     2010.9494    26     2006.1882     2013.1435    89832    0.35%
     12    14     2010.5386     9     2006.1882     2013.1435    91237    0.35%
     13    15     2010.5248     7     2006.1882     2013.1435    91620    0.35%
     14    16     2010.2237    12     2006.1882     2013.1435    94495    0.35%
     15    17     2008.9522     4     2006.1882     2013.1435    97594    0.35%
     16    18     2008.7650     4     2006.1882     2013.1435    98025    0.35%
     17    19     2007.5255     9     2006.1882     2013.1435   101568    0.35%
     19    21     2006.2779    10     2006.1882     2013.1435   105776    0.35%
*    20+   18                         2006.6673     2013.1435             0.32%
     20    20     2008.4018     7     2006.6673     2013.1435   106300    0.32%
     21    21     2007.0623     9     2006.6673     2013.1435   110338    0.32%
Elapsed time = 1323.08 sec. (883729.84 ticks, tree = 14.96 MB, solutions = 4)
     23    21        cutoff           2006.6673     2013.1435   110844    0.32%
     24    22     2008.1735     7     2006.6673     2013.1435   111161    0.32%
     25    23     2007.3464     2     2006.6673     2013.1435   112283    0.32%
     27    23        cutoff           2006.6673     2013.1435   112380    0.32%
     29    23        cutoff           2006.6673     2013.1435   112477    0.32%
     30    24     2007.2574     2     2006.6673     2013.1435   112520    0.32%
     33    23        cutoff           2006.6673     2013.1435   112677    0.32%
     35    23        cutoff           2006.6673     2013.1435   112775    0.32%
     37    23        cutoff           2006.6673     2013.1435   112894    0.32%
     38    24     2007.0902     2     2006.6673     2013.1435   112993    0.32%
Elapsed time = 1407.85 sec. (920571.41 ticks, tree = 15.24 MB, solutions = 4)
     39    23        cutoff           2006.6673     2013.1435   113413    0.32%
     40    24     2007.0202     3     2006.6673     2013.1435   113464    0.32%
     42    24     2006.9113     2     2006.6673     2013.1435   113653    0.32%
     45    25     2006.8628     2     2006.6673     2013.1435   113708    0.32%
     48    24        cutoff           2006.6673     2013.1435   113790    0.32%
     49    25     2006.7001     2     2006.6673     2013.1435   113943    0.32%
     52    24        cutoff           2006.6673     2013.1435   114004    0.32%
     55    23     2012.9996    30     2006.6673     2013.1432   115445    0.32%
     56    24     2012.9126    28     2006.6673     2013.1432   115816    0.32%
     57    25     2012.8666    29     2006.6673     2013.1432   115951    0.32%
Elapsed time = 1494.95 sec. (955923.05 ticks, tree = 15.39 MB, solutions = 4)
     58    26     2012.7621    23     2006.6673     2013.1432   116566    0.32%
     59    27     2012.7406    20     2006.6673     2013.1432   116783    0.32%
*    60+   17                         2009.8779     2013.1432             0.16%
*    60+   10                         2011.7663     2013.1432             0.07%
     60    12     2012.6271    25     2011.7663     2013.1432   117395    0.07%
     61    13     2012.1263     5     2011.7663     2013.1432   120014    0.07%
     62    14     2012.1229    14     2011.7663     2013.1432   120111    0.07%
     63    15     2012.0062     6     2011.7663     2013.1432   122033    0.07%
*    65    15      integral     0     2011.9740     2013.1432   123971    0.06%
     66    16     2011.9799     2     2011.9740     2013.1432   124359    0.06%
     68    14        cutoff           2011.9740     2013.1432   124448    0.06%
     69    15     2011.9755    31     2011.9740     2012.9995   127643    0.05%
Elapsed time = 1783.70 sec. (1139759.22 ticks, tree = 1.87 MB, solutions = 7)
     72    14     2012.6053    10     2011.9740     2012.8819   129358    0.05%
     73    15     2012.5812     2     2011.9740     2012.8819   129614    0.05%
     74    16     2012.5800     6     2011.9740     2012.8819   129753    0.05%
     75    17     2012.5790    10     2011.9740     2012.8819   129995    0.05%
     77    19     2012.5750     4     2011.9740     2012.8819   130672    0.05%
     78    20     2012.5724    10     2011.9740     2012.8819   131195    0.05%
*    79    16      integral     0     2012.5702     2012.8819   131593    0.02%
     81    16     2012.8120     4     2012.5702     2012.8817   133537    0.02%
     82    17     2012.7493     2     2012.5702     2012.8817   134990    0.02%
     83    18     2012.7346     4     2012.5702     2012.8817   135324    0.02%
Elapsed time = 1948.97 sec. (1227863.73 ticks, tree = 2.30 MB, solutions = 8)
     84    19     2012.6593     4     2012.5702     2012.8817   138104    0.02%
     85    20     2012.6315    10     2012.5702     2012.8817   139347    0.02%
     86    21     2012.6258     9     2012.5702     2012.8817   143563    0.02%
     87    20        cutoff           2012.5702     2012.8817   148235    0.02%
*    88    13      integral     0     2012.6159     2012.8817   153449    0.01%
     89    14     2012.7685    18     2012.6159     2012.8666   159583    0.01%
     90    15     2012.6653     4     2012.6159     2012.8666   201667    0.01%
     91    16     2012.6294     2     2012.6159     2012.8666   202292    0.01%
     92    15        cutoff           2012.6159     2012.8666   206214    0.01%
     93    14        cutoff           2012.6159     2012.8666   211090    0.01%
Elapsed time = 2143.47 sec. (1350689.99 ticks, tree = 1.87 MB, solutions = 9)
     94    15     2012.7672    19     2012.6159     2012.8665   222498    0.01%
     95    16     2012.7076    19     2012.6159     2012.8665   222938    0.01%
     96    17     2012.6526    20     2012.6159     2012.8665   223257    0.01%
     98    15        cutoff           2012.6159     2012.8665   223462    0.01%
     99    14        cutoff           2012.6159     2012.8119   223699    0.01%
    100    13        cutoff           2012.6159     2012.7681   224069    0.01%
    101    12        cutoff           2012.6159     2012.7671   224273    0.01%
    102    11        cutoff           2012.6159     2012.7616   224463    0.01%
    103    10        cutoff           2012.6159     2012.7492   224753    0.01%
    104     9        cutoff           2012.6159     2012.7344   225479    0.01%
Elapsed time = 2218.12 sec. (1396196.12 ticks, tree = 1.16 MB, solutions = 9)
    105     8        cutoff           2012.6159     2012.7073   225616    0.00%
    107     6        cutoff           2012.6159     2012.6593   225793    0.00%
    109     4        cutoff           2012.6159     2012.6582   226058    0.00%
    110     5     2012.6460    24     2012.6159     2012.6460   226170    0.00%
    112     3        cutoff           2012.6159     2012.6309   226294    0.00%
    115     0        cutoff           2012.6159     2012.6159   226355    0.00%

User cuts applied:  12

Root node processing (before b&c):
  Real time             =  367.05 sec. (300292.37 ticks)
Sequential b&c:
  Real time             = 1869.87 sec. (1108567.15 ticks)
                          ------------
Total (root+branch&cut) = 2236.92 sec. (1408859.52 ticks)
@Parameters: 
is_S_cut                                true
is_add_all_yinF                         true
is_start_value                          true
is_usercut                              true
is_visualization                        false
uc_only_rootnode                        false

data                                    Qi
fn                                      data/Qi/instance_500_800.csv
mode                                    ZLP
solver                                  cplex

p                                       10
r                                       2

EPS                                     1.0e-06
EPS_vio                                 1.0e-04
beta                                    0.10
gap                                     0.00
nodelimit                               Inf
timelimit                               7200.00


@PrintInfos
ItCnt: 226355
Current gap: 0.00 %
Termination Status: OPTIMAL
Primal Status: FEASIBLE_POINT
Solve Time: 2236.92 sec
Objective Value: 2012.615950
Number of Nodes:    116

CutInfo: [phase] num / time (sec) 
ZLP             [phase1]     0 / 0.00 [rLC]     4 / 10.55 [rUC]     2 / 3.77 [sLC]     1 / 16.30 [sUC]     9 / 288.21 
OldSubmodular   [phase1]     0 / 0.00 [rLC]     0 / 0.00 [rUC]     0 / 0.00 [sLC]     0 / 0.00 [sUC]     0 / 0.00 
NewSubmodular   [phase1]     0 / 0.00 [rLC]     0 / 0.00 [rUC]     0 / 0.00 [sLC]     0 / 0.00 [sUC]     0 / 0.00 
PMP             [phase1]     0 / 0.00 [rLC]     5 / 7.47 [rUC]     2 / 2.73 [sLC]     9 / 14.25 [sUC]   149 / 241.08 
Separation Round: [phase1] 0  [rLC] 5  [rUC] 2  [sLC] 9  [sUC] 149
Root Best Bound 2013.143488
Root Best Integer: 1995.415427
Best Bound: 2012.615950
Best Integer: 2012.615950

